(declare-fun file_1_/usr/lib/x86_64-linux-gnu/gconv/gconv-modules.cache_0_120_1024
             ()
             (_ BitVec 1024))
(declare-fun mem_c00b2de3_469_16 () (_ BitVec 16))
(declare-fun mem_7fffffffffefab0_118_64 () (_ BitVec 64))
(declare-fun mem_c00a8c63_255_16 () (_ BitVec 16))
(declare-fun mem_c00a3ba3_235_16 () (_ BitVec 16))
(declare-fun mem_c009eae3_222_16 () (_ BitVec 16))
(declare-fun mem_c0099a23_212_16 () (_ BitVec 16))
(declare-fun mem_c0094963_207_16 () (_ BitVec 16))
(declare-fun mem_c00cefff_194_8 () (_ BitVec 8))
(declare-fun mem_c00cf000_195_8 () (_ BitVec 8))
(declare-fun strlen_203_64 () (_ BitVec 64))
(assert (let ((a!1 (ite (= #x00
                   ((_ extract 503 496)
                     file_1_/usr/lib/x86_64-linux-gnu/gconv/gconv-modules.cache_0_120_1024))
                (bvadd #x00000000c008003b
                       (concat (concat #x000000000000 mem_c00cf000_195_8)
                               mem_c00cefff_194_8))
                #x0000000000000000)))
(let ((a!2 (ite (= #x00
                   ((_ extract 511 504)
                     file_1_/usr/lib/x86_64-linux-gnu/gconv/gconv-modules.cache_0_120_1024))
                (bvadd #x00000000c008003a
                       (concat (concat #x000000000000 mem_c00cf000_195_8)
                               mem_c00cefff_194_8))
                a!1)))
(let ((a!3 (ite (= #x00
                   ((_ extract 519 512)
                     file_1_/usr/lib/x86_64-linux-gnu/gconv/gconv-modules.cache_0_120_1024))
                (bvadd #x00000000c0080039
                       (concat (concat #x000000000000 mem_c00cf000_195_8)
                               mem_c00cefff_194_8))
                a!2)))
(let ((a!4 (ite (= #x00
                   ((_ extract 527 520)
                     file_1_/usr/lib/x86_64-linux-gnu/gconv/gconv-modules.cache_0_120_1024))
                (bvadd #x00000000c0080038
                       (concat (concat #x000000000000 mem_c00cf000_195_8)
                               mem_c00cefff_194_8))
                a!3)))
(let ((a!5 (ite (= #x00
                   ((_ extract 535 528)
                     file_1_/usr/lib/x86_64-linux-gnu/gconv/gconv-modules.cache_0_120_1024))
                (bvadd #x00000000c0080037
                       (concat (concat #x000000000000 mem_c00cf000_195_8)
                               mem_c00cefff_194_8))
                a!4)))
(let ((a!6 (ite (= #x00
                   ((_ extract 543 536)
                     file_1_/usr/lib/x86_64-linux-gnu/gconv/gconv-modules.cache_0_120_1024))
                (bvadd #x00000000c0080036
                       (concat (concat #x000000000000 mem_c00cf000_195_8)
                               mem_c00cefff_194_8))
                a!5)))
(let ((a!7 (ite (= #x00
                   ((_ extract 551 544)
                     file_1_/usr/lib/x86_64-linux-gnu/gconv/gconv-modules.cache_0_120_1024))
                (bvadd #x00000000c0080035
                       (concat (concat #x000000000000 mem_c00cf000_195_8)
                               mem_c00cefff_194_8))
                a!6)))
(let ((a!8 (ite (= #x00
                   ((_ extract 559 552)
                     file_1_/usr/lib/x86_64-linux-gnu/gconv/gconv-modules.cache_0_120_1024))
                (bvadd #x00000000c0080034
                       (concat (concat #x000000000000 mem_c00cf000_195_8)
                               mem_c00cefff_194_8))
                a!7)))
(let ((a!9 (ite (= #x00
                   ((_ extract 567 560)
                     file_1_/usr/lib/x86_64-linux-gnu/gconv/gconv-modules.cache_0_120_1024))
                (bvadd #x00000000c0080033
                       (concat (concat #x000000000000 mem_c00cf000_195_8)
                               mem_c00cefff_194_8))
                a!8)))
(let ((a!10 (ite (= #x00
                    ((_ extract 575 568)
                      file_1_/usr/lib/x86_64-linux-gnu/gconv/gconv-modules.cache_0_120_1024))
                 (bvadd #x00000000c0080032
                        (concat (concat #x000000000000 mem_c00cf000_195_8)
                                mem_c00cefff_194_8))
                 a!9)))
(let ((a!11 (ite (= #x00
                    ((_ extract 583 576)
                      file_1_/usr/lib/x86_64-linux-gnu/gconv/gconv-modules.cache_0_120_1024))
                 (bvadd #x00000000c0080031
                        (concat (concat #x000000000000 mem_c00cf000_195_8)
                                mem_c00cefff_194_8))
                 a!10)))
(let ((a!12 (ite (= #x00
                    ((_ extract 591 584)
                      file_1_/usr/lib/x86_64-linux-gnu/gconv/gconv-modules.cache_0_120_1024))
                 (bvadd #x00000000c0080030
                        (concat (concat #x000000000000 mem_c00cf000_195_8)
                                mem_c00cefff_194_8))
                 a!11)))
(let ((a!13 (ite (= #x00
                    ((_ extract 599 592)
                      file_1_/usr/lib/x86_64-linux-gnu/gconv/gconv-modules.cache_0_120_1024))
                 (bvadd #x00000000c008002f
                        (concat (concat #x000000000000 mem_c00cf000_195_8)
                                mem_c00cefff_194_8))
                 a!12)))
(let ((a!14 (ite (= #x00
                    ((_ extract 607 600)
                      file_1_/usr/lib/x86_64-linux-gnu/gconv/gconv-modules.cache_0_120_1024))
                 (bvadd #x00000000c008002e
                        (concat (concat #x000000000000 mem_c00cf000_195_8)
                                mem_c00cefff_194_8))
                 a!13)))
(let ((a!15 (ite (= #x00
                    ((_ extract 615 608)
                      file_1_/usr/lib/x86_64-linux-gnu/gconv/gconv-modules.cache_0_120_1024))
                 (bvadd #x00000000c008002d
                        (concat (concat #x000000000000 mem_c00cf000_195_8)
                                mem_c00cefff_194_8))
                 a!14)))
(let ((a!16 (ite (= #x00
                    ((_ extract 623 616)
                      file_1_/usr/lib/x86_64-linux-gnu/gconv/gconv-modules.cache_0_120_1024))
                 (bvadd #x00000000c008002c
                        (concat (concat #x000000000000 mem_c00cf000_195_8)
                                mem_c00cefff_194_8))
                 a!15)))
(let ((a!17 (ite (= #x00
                    ((_ extract 631 624)
                      file_1_/usr/lib/x86_64-linux-gnu/gconv/gconv-modules.cache_0_120_1024))
                 (bvadd #x00000000c008002b
                        (concat (concat #x000000000000 mem_c00cf000_195_8)
                                mem_c00cefff_194_8))
                 a!16)))
(let ((a!18 (ite (= #x00
                    ((_ extract 639 632)
                      file_1_/usr/lib/x86_64-linux-gnu/gconv/gconv-modules.cache_0_120_1024))
                 (bvadd #x00000000c008002a
                        (concat (concat #x000000000000 mem_c00cf000_195_8)
                                mem_c00cefff_194_8))
                 a!17)))
(let ((a!19 (ite (= #x00
                    ((_ extract 647 640)
                      file_1_/usr/lib/x86_64-linux-gnu/gconv/gconv-modules.cache_0_120_1024))
                 (bvadd #x00000000c0080029
                        (concat (concat #x000000000000 mem_c00cf000_195_8)
                                mem_c00cefff_194_8))
                 a!18)))
(let ((a!20 (ite (= #x00
                    ((_ extract 655 648)
                      file_1_/usr/lib/x86_64-linux-gnu/gconv/gconv-modules.cache_0_120_1024))
                 (bvadd #x00000000c0080028
                        (concat (concat #x000000000000 mem_c00cf000_195_8)
                                mem_c00cefff_194_8))
                 a!19)))
(let ((a!21 (ite (= #x00
                    ((_ extract 663 656)
                      file_1_/usr/lib/x86_64-linux-gnu/gconv/gconv-modules.cache_0_120_1024))
                 (bvadd #x00000000c0080027
                        (concat (concat #x000000000000 mem_c00cf000_195_8)
                                mem_c00cefff_194_8))
                 a!20)))
(let ((a!22 (ite (= #x00
                    ((_ extract 671 664)
                      file_1_/usr/lib/x86_64-linux-gnu/gconv/gconv-modules.cache_0_120_1024))
                 (bvadd #x00000000c0080026
                        (concat (concat #x000000000000 mem_c00cf000_195_8)
                                mem_c00cefff_194_8))
                 a!21)))
(let ((a!23 (ite (= #x00
                    ((_ extract 679 672)
                      file_1_/usr/lib/x86_64-linux-gnu/gconv/gconv-modules.cache_0_120_1024))
                 (bvadd #x00000000c0080025
                        (concat (concat #x000000000000 mem_c00cf000_195_8)
                                mem_c00cefff_194_8))
                 a!22)))
(let ((a!24 (ite (= #x00
                    ((_ extract 687 680)
                      file_1_/usr/lib/x86_64-linux-gnu/gconv/gconv-modules.cache_0_120_1024))
                 (bvadd #x00000000c0080024
                        (concat (concat #x000000000000 mem_c00cf000_195_8)
                                mem_c00cefff_194_8))
                 a!23)))
(let ((a!25 (ite (= #x00
                    ((_ extract 695 688)
                      file_1_/usr/lib/x86_64-linux-gnu/gconv/gconv-modules.cache_0_120_1024))
                 (bvadd #x00000000c0080023
                        (concat (concat #x000000000000 mem_c00cf000_195_8)
                                mem_c00cefff_194_8))
                 a!24)))
(let ((a!26 (ite (= #x00
                    ((_ extract 703 696)
                      file_1_/usr/lib/x86_64-linux-gnu/gconv/gconv-modules.cache_0_120_1024))
                 (bvadd #x00000000c0080022
                        (concat (concat #x000000000000 mem_c00cf000_195_8)
                                mem_c00cefff_194_8))
                 a!25)))
(let ((a!27 (ite (= #x00
                    ((_ extract 711 704)
                      file_1_/usr/lib/x86_64-linux-gnu/gconv/gconv-modules.cache_0_120_1024))
                 (bvadd #x00000000c0080021
                        (concat (concat #x000000000000 mem_c00cf000_195_8)
                                mem_c00cefff_194_8))
                 a!26)))
(let ((a!28 (ite (= #x00
                    ((_ extract 719 712)
                      file_1_/usr/lib/x86_64-linux-gnu/gconv/gconv-modules.cache_0_120_1024))
                 (bvadd #x00000000c0080020
                        (concat (concat #x000000000000 mem_c00cf000_195_8)
                                mem_c00cefff_194_8))
                 a!27)))
(let ((a!29 (ite (= #x00
                    ((_ extract 727 720)
                      file_1_/usr/lib/x86_64-linux-gnu/gconv/gconv-modules.cache_0_120_1024))
                 (bvadd #x00000000c008001f
                        (concat (concat #x000000000000 mem_c00cf000_195_8)
                                mem_c00cefff_194_8))
                 a!28)))
(let ((a!30 (ite (= #x00
                    ((_ extract 735 728)
                      file_1_/usr/lib/x86_64-linux-gnu/gconv/gconv-modules.cache_0_120_1024))
                 (bvadd #x00000000c008001e
                        (concat (concat #x000000000000 mem_c00cf000_195_8)
                                mem_c00cefff_194_8))
                 a!29)))
(let ((a!31 (ite (= #x00
                    ((_ extract 743 736)
                      file_1_/usr/lib/x86_64-linux-gnu/gconv/gconv-modules.cache_0_120_1024))
                 (bvadd #x00000000c008001d
                        (concat (concat #x000000000000 mem_c00cf000_195_8)
                                mem_c00cefff_194_8))
                 a!30)))
(let ((a!32 (ite (= #x00
                    ((_ extract 751 744)
                      file_1_/usr/lib/x86_64-linux-gnu/gconv/gconv-modules.cache_0_120_1024))
                 (bvadd #x00000000c008001c
                        (concat (concat #x000000000000 mem_c00cf000_195_8)
                                mem_c00cefff_194_8))
                 a!31)))
(let ((a!33 (ite (= #x00
                    ((_ extract 759 752)
                      file_1_/usr/lib/x86_64-linux-gnu/gconv/gconv-modules.cache_0_120_1024))
                 (bvadd #x00000000c008001b
                        (concat (concat #x000000000000 mem_c00cf000_195_8)
                                mem_c00cefff_194_8))
                 a!32)))
(let ((a!34 (ite (= #x00
                    ((_ extract 767 760)
                      file_1_/usr/lib/x86_64-linux-gnu/gconv/gconv-modules.cache_0_120_1024))
                 (bvadd #x00000000c008001a
                        (concat (concat #x000000000000 mem_c00cf000_195_8)
                                mem_c00cefff_194_8))
                 a!33)))
(let ((a!35 (ite (= #x00
                    ((_ extract 775 768)
                      file_1_/usr/lib/x86_64-linux-gnu/gconv/gconv-modules.cache_0_120_1024))
                 (bvadd #x00000000c0080019
                        (concat (concat #x000000000000 mem_c00cf000_195_8)
                                mem_c00cefff_194_8))
                 a!34)))
(let ((a!36 (ite (= #x00
                    ((_ extract 783 776)
                      file_1_/usr/lib/x86_64-linux-gnu/gconv/gconv-modules.cache_0_120_1024))
                 (bvadd #x00000000c0080018
                        (concat (concat #x000000000000 mem_c00cf000_195_8)
                                mem_c00cefff_194_8))
                 a!35)))
(let ((a!37 (ite (= #x00
                    ((_ extract 791 784)
                      file_1_/usr/lib/x86_64-linux-gnu/gconv/gconv-modules.cache_0_120_1024))
                 (bvadd #x00000000c0080017
                        (concat (concat #x000000000000 mem_c00cf000_195_8)
                                mem_c00cefff_194_8))
                 a!36)))
(let ((a!38 (ite (= #x00
                    ((_ extract 799 792)
                      file_1_/usr/lib/x86_64-linux-gnu/gconv/gconv-modules.cache_0_120_1024))
                 (bvadd #x00000000c0080016
                        (concat (concat #x000000000000 mem_c00cf000_195_8)
                                mem_c00cefff_194_8))
                 a!37)))
(let ((a!39 (ite (= #x00
                    ((_ extract 807 800)
                      file_1_/usr/lib/x86_64-linux-gnu/gconv/gconv-modules.cache_0_120_1024))
                 (bvadd #x00000000c0080015
                        (concat (concat #x000000000000 mem_c00cf000_195_8)
                                mem_c00cefff_194_8))
                 a!38)))
(let ((a!40 (ite (= #x00
                    ((_ extract 815 808)
                      file_1_/usr/lib/x86_64-linux-gnu/gconv/gconv-modules.cache_0_120_1024))
                 (bvadd #x00000000c0080014
                        (concat (concat #x000000000000 mem_c00cf000_195_8)
                                mem_c00cefff_194_8))
                 a!39)))
(let ((a!41 (ite (= #x00
                    ((_ extract 823 816)
                      file_1_/usr/lib/x86_64-linux-gnu/gconv/gconv-modules.cache_0_120_1024))
                 (bvadd #x00000000c0080013
                        (concat (concat #x000000000000 mem_c00cf000_195_8)
                                mem_c00cefff_194_8))
                 a!40)))
(let ((a!42 (ite (= #x00
                    ((_ extract 831 824)
                      file_1_/usr/lib/x86_64-linux-gnu/gconv/gconv-modules.cache_0_120_1024))
                 (bvadd #x00000000c0080012
                        (concat (concat #x000000000000 mem_c00cf000_195_8)
                                mem_c00cefff_194_8))
                 a!41)))
(let ((a!43 (ite (= #x00
                    ((_ extract 839 832)
                      file_1_/usr/lib/x86_64-linux-gnu/gconv/gconv-modules.cache_0_120_1024))
                 (bvadd #x00000000c0080011
                        (concat (concat #x000000000000 mem_c00cf000_195_8)
                                mem_c00cefff_194_8))
                 a!42)))
(let ((a!44 (ite (= #x00
                    ((_ extract 847 840)
                      file_1_/usr/lib/x86_64-linux-gnu/gconv/gconv-modules.cache_0_120_1024))
                 (bvadd #x00000000c0080010
                        (concat (concat #x000000000000 mem_c00cf000_195_8)
                                mem_c00cefff_194_8))
                 a!43)))
(let ((a!45 (ite (= #x00
                    ((_ extract 855 848)
                      file_1_/usr/lib/x86_64-linux-gnu/gconv/gconv-modules.cache_0_120_1024))
                 (bvadd #x00000000c008000f
                        (concat (concat #x000000000000 mem_c00cf000_195_8)
                                mem_c00cefff_194_8))
                 a!44)))
(let ((a!46 (ite (= #x00
                    ((_ extract 863 856)
                      file_1_/usr/lib/x86_64-linux-gnu/gconv/gconv-modules.cache_0_120_1024))
                 (bvadd #x00000000c008000e
                        (concat (concat #x000000000000 mem_c00cf000_195_8)
                                mem_c00cefff_194_8))
                 a!45)))
(let ((a!47 (ite (= #x00
                    ((_ extract 871 864)
                      file_1_/usr/lib/x86_64-linux-gnu/gconv/gconv-modules.cache_0_120_1024))
                 (bvadd #x00000000c008000d
                        (concat (concat #x000000000000 mem_c00cf000_195_8)
                                mem_c00cefff_194_8))
                 a!46)))
(let ((a!48 (ite (= #x00
                    ((_ extract 879 872)
                      file_1_/usr/lib/x86_64-linux-gnu/gconv/gconv-modules.cache_0_120_1024))
                 (bvadd #x00000000c008000c
                        (concat (concat #x000000000000 mem_c00cf000_195_8)
                                mem_c00cefff_194_8))
                 a!47)))
(let ((a!49 (ite (= #x00
                    ((_ extract 887 880)
                      file_1_/usr/lib/x86_64-linux-gnu/gconv/gconv-modules.cache_0_120_1024))
                 (bvadd #x00000000c008000b
                        (concat (concat #x000000000000 mem_c00cf000_195_8)
                                mem_c00cefff_194_8))
                 a!48)))
(let ((a!50 (ite (= #x00
                    ((_ extract 895 888)
                      file_1_/usr/lib/x86_64-linux-gnu/gconv/gconv-modules.cache_0_120_1024))
                 (bvadd #x00000000c008000a
                        (concat (concat #x000000000000 mem_c00cf000_195_8)
                                mem_c00cefff_194_8))
                 a!49)))
(let ((a!51 (ite (= #x00
                    ((_ extract 903 896)
                      file_1_/usr/lib/x86_64-linux-gnu/gconv/gconv-modules.cache_0_120_1024))
                 (bvadd #x00000000c0080009
                        (concat (concat #x000000000000 mem_c00cf000_195_8)
                                mem_c00cefff_194_8))
                 a!50)))
(let ((a!52 (ite (= #x00
                    ((_ extract 911 904)
                      file_1_/usr/lib/x86_64-linux-gnu/gconv/gconv-modules.cache_0_120_1024))
                 (bvadd #x00000000c0080008
                        (concat (concat #x000000000000 mem_c00cf000_195_8)
                                mem_c00cefff_194_8))
                 a!51)))
(let ((a!53 (ite (= #x00
                    ((_ extract 919 912)
                      file_1_/usr/lib/x86_64-linux-gnu/gconv/gconv-modules.cache_0_120_1024))
                 (bvadd #x00000000c0080007
                        (concat (concat #x000000000000 mem_c00cf000_195_8)
                                mem_c00cefff_194_8))
                 a!52)))
(let ((a!54 (ite (= #x00
                    ((_ extract 927 920)
                      file_1_/usr/lib/x86_64-linux-gnu/gconv/gconv-modules.cache_0_120_1024))
                 (bvadd #x00000000c0080006
                        (concat (concat #x000000000000 mem_c00cf000_195_8)
                                mem_c00cefff_194_8))
                 a!53)))
(let ((a!55 (ite (= #x00
                    ((_ extract 935 928)
                      file_1_/usr/lib/x86_64-linux-gnu/gconv/gconv-modules.cache_0_120_1024))
                 (bvadd #x00000000c0080005
                        (concat (concat #x000000000000 mem_c00cf000_195_8)
                                mem_c00cefff_194_8))
                 a!54)))
(let ((a!56 (ite (= #x00
                    ((_ extract 943 936)
                      file_1_/usr/lib/x86_64-linux-gnu/gconv/gconv-modules.cache_0_120_1024))
                 (bvadd #x00000000c0080004
                        (concat (concat #x000000000000 mem_c00cf000_195_8)
                                mem_c00cefff_194_8))
                 a!55)))
(let ((a!57 (bvadd a!56
                   (bvmul #xffffffffffffffff
                          (concat (concat #x000000000000 mem_c00cf000_195_8)
                                  mem_c00cefff_194_8)))))
  (and (bvule #x000000000004f443 mem_7fffffffffefab0_118_64)
       (not (= #x0000 mem_c00b2de3_469_16))
       (= #x24
          ((_ extract 1023 1016)
            file_1_/usr/lib/x86_64-linux-gnu/gconv/gconv-modules.cache_0_120_1024))
       (= #x03
          ((_ extract 1015 1008)
            file_1_/usr/lib/x86_64-linux-gnu/gconv/gconv-modules.cache_0_120_1024))
       (= #x01
          ((_ extract 1007 1000)
            file_1_/usr/lib/x86_64-linux-gnu/gconv/gconv-modules.cache_0_120_1024))
       (= #x20
          ((_ extract 999 992)
            file_1_/usr/lib/x86_64-linux-gnu/gconv/gconv-modules.cache_0_120_1024))
       (= a!57 (bvadd #x00000000c0080000 strlen_203_64))
       (bvule #xc0080006
              (concat (concat #xc008 mem_c00cf000_195_8) mem_c00cefff_194_8))
       (bvule (concat (concat #xc008 mem_c00cf000_195_8) mem_c00cefff_194_8)
              #xc0080006)
       (not (bvule ((_ extract 15 0) mem_7fffffffffefab0_118_64)
                   (concat mem_c00cf000_195_8 mem_c00cefff_194_8)))
       (= #x0000 ((_ extract 31 16) mem_7fffffffffefab0_118_64))
       (bvule ((_ extract 15 0) mem_7fffffffffefab0_118_64) mem_c0094963_207_16)
       (bvule ((_ extract 15 0) mem_7fffffffffefab0_118_64) mem_c0099a23_212_16)
       (bvule ((_ extract 15 0) mem_7fffffffffefab0_118_64) mem_c009eae3_222_16)
       (bvule ((_ extract 15 0) mem_7fffffffffefab0_118_64) mem_c00a3ba3_235_16)
       (bvule ((_ extract 15 0) mem_7fffffffffefab0_118_64) mem_c00a8c63_255_16)
       (= #x00
          ((_ extract 991 984)
            file_1_/usr/lib/x86_64-linux-gnu/gconv/gconv-modules.cache_0_120_1024))
       (= #x00
          ((_ extract 983 976)
            file_1_/usr/lib/x86_64-linux-gnu/gconv/gconv-modules.cache_0_120_1024))
       (= #xe7
          ((_ extract 975 968)
            file_1_/usr/lib/x86_64-linux-gnu/gconv/gconv-modules.cache_0_120_1024))
       (= #xfc
          ((_ extract 967 960)
            file_1_/usr/lib/x86_64-linux-gnu/gconv/gconv-modules.cache_0_120_1024))
       (= #xd7
          ((_ extract 959 952)
            file_1_/usr/lib/x86_64-linux-gnu/gconv/gconv-modules.cache_0_120_1024))
       (= #xfd
          ((_ extract 951 944)
            file_1_/usr/lib/x86_64-linux-gnu/gconv/gconv-modules.cache_0_120_1024))
       (not (bvule ((_ extract 15 0) mem_7fffffffffefab0_118_64)
                   mem_c00b2de3_469_16))
       (or (= #x00
              ((_ extract 871 864)
                file_1_/usr/lib/x86_64-linux-gnu/gconv/gconv-modules.cache_0_120_1024))
           (= #x00
              ((_ extract 895 888)
                file_1_/usr/lib/x86_64-linux-gnu/gconv/gconv-modules.cache_0_120_1024))
           (= #x00
              ((_ extract 791 784)
                file_1_/usr/lib/x86_64-linux-gnu/gconv/gconv-modules.cache_0_120_1024))
           (= #x00
              ((_ extract 799 792)
                file_1_/usr/lib/x86_64-linux-gnu/gconv/gconv-modules.cache_0_120_1024))
           (= #x00
              ((_ extract 711 704)
                file_1_/usr/lib/x86_64-linux-gnu/gconv/gconv-modules.cache_0_120_1024))
           (= #x00
              ((_ extract 911 904)
                file_1_/usr/lib/x86_64-linux-gnu/gconv/gconv-modules.cache_0_120_1024))
           (= #x00
              ((_ extract 695 688)
                file_1_/usr/lib/x86_64-linux-gnu/gconv/gconv-modules.cache_0_120_1024))
           (= #x00
              ((_ extract 927 920)
                file_1_/usr/lib/x86_64-linux-gnu/gconv/gconv-modules.cache_0_120_1024))
           (= #x00
              ((_ extract 863 856)
                file_1_/usr/lib/x86_64-linux-gnu/gconv/gconv-modules.cache_0_120_1024))
           (= #x00
              ((_ extract 751 744)
                file_1_/usr/lib/x86_64-linux-gnu/gconv/gconv-modules.cache_0_120_1024))
           (= #x00
              ((_ extract 903 896)
                file_1_/usr/lib/x86_64-linux-gnu/gconv/gconv-modules.cache_0_120_1024))
           (= #x00
              ((_ extract 919 912)
                file_1_/usr/lib/x86_64-linux-gnu/gconv/gconv-modules.cache_0_120_1024))
           (= #x00
              ((_ extract 679 672)
                file_1_/usr/lib/x86_64-linux-gnu/gconv/gconv-modules.cache_0_120_1024))
           (= #x00
              ((_ extract 743 736)
                file_1_/usr/lib/x86_64-linux-gnu/gconv/gconv-modules.cache_0_120_1024))
           (= #x00
              ((_ extract 767 760)
                file_1_/usr/lib/x86_64-linux-gnu/gconv/gconv-modules.cache_0_120_1024))
           (= #x00
              ((_ extract 775 768)
                file_1_/usr/lib/x86_64-linux-gnu/gconv/gconv-modules.cache_0_120_1024))
           (= #x00
              ((_ extract 807 800)
                file_1_/usr/lib/x86_64-linux-gnu/gconv/gconv-modules.cache_0_120_1024))
           (= #x00
              ((_ extract 815 808)
                file_1_/usr/lib/x86_64-linux-gnu/gconv/gconv-modules.cache_0_120_1024))
           (= #x00
              ((_ extract 823 816)
                file_1_/usr/lib/x86_64-linux-gnu/gconv/gconv-modules.cache_0_120_1024))
           (= #x00
              ((_ extract 831 824)
                file_1_/usr/lib/x86_64-linux-gnu/gconv/gconv-modules.cache_0_120_1024))
           (= #x00
              ((_ extract 855 848)
                file_1_/usr/lib/x86_64-linux-gnu/gconv/gconv-modules.cache_0_120_1024))
           (= #x00
              ((_ extract 879 872)
                file_1_/usr/lib/x86_64-linux-gnu/gconv/gconv-modules.cache_0_120_1024))
           (= #x00
              ((_ extract 839 832)
                file_1_/usr/lib/x86_64-linux-gnu/gconv/gconv-modules.cache_0_120_1024))
           (= #x00
              ((_ extract 847 840)
                file_1_/usr/lib/x86_64-linux-gnu/gconv/gconv-modules.cache_0_120_1024))
           (= #x00
              ((_ extract 887 880)
                file_1_/usr/lib/x86_64-linux-gnu/gconv/gconv-modules.cache_0_120_1024))
           (= #x00
              ((_ extract 783 776)
                file_1_/usr/lib/x86_64-linux-gnu/gconv/gconv-modules.cache_0_120_1024))
           (= #x00
              ((_ extract 943 936)
                file_1_/usr/lib/x86_64-linux-gnu/gconv/gconv-modules.cache_0_120_1024))
           (= #x00
              ((_ extract 703 696)
                file_1_/usr/lib/x86_64-linux-gnu/gconv/gconv-modules.cache_0_120_1024))
           (= #x00
              ((_ extract 935 928)
                file_1_/usr/lib/x86_64-linux-gnu/gconv/gconv-modules.cache_0_120_1024))
           (= #x00
              ((_ extract 727 720)
                file_1_/usr/lib/x86_64-linux-gnu/gconv/gconv-modules.cache_0_120_1024))
           (= #x00
              ((_ extract 639 632)
                file_1_/usr/lib/x86_64-linux-gnu/gconv/gconv-modules.cache_0_120_1024))
           (= #x00
              ((_ extract 583 576)
                file_1_/usr/lib/x86_64-linux-gnu/gconv/gconv-modules.cache_0_120_1024))
           (= #x00
              ((_ extract 575 568)
                file_1_/usr/lib/x86_64-linux-gnu/gconv/gconv-modules.cache_0_120_1024))
           (= #x00
              ((_ extract 599 592)
                file_1_/usr/lib/x86_64-linux-gnu/gconv/gconv-modules.cache_0_120_1024))
           (= #x00
              ((_ extract 607 600)
                file_1_/usr/lib/x86_64-linux-gnu/gconv/gconv-modules.cache_0_120_1024))
           (= #x00
              ((_ extract 615 608)
                file_1_/usr/lib/x86_64-linux-gnu/gconv/gconv-modules.cache_0_120_1024))
           (= #x00
              ((_ extract 623 616)
                file_1_/usr/lib/x86_64-linux-gnu/gconv/gconv-modules.cache_0_120_1024))
           (= #x00
              ((_ extract 559 552)
                file_1_/usr/lib/x86_64-linux-gnu/gconv/gconv-modules.cache_0_120_1024))
           (= #x00
              ((_ extract 567 560)
                file_1_/usr/lib/x86_64-linux-gnu/gconv/gconv-modules.cache_0_120_1024))
           (= #x00
              ((_ extract 519 512)
                file_1_/usr/lib/x86_64-linux-gnu/gconv/gconv-modules.cache_0_120_1024))
           (= #x00
              ((_ extract 527 520)
                file_1_/usr/lib/x86_64-linux-gnu/gconv/gconv-modules.cache_0_120_1024))
           (= #x00
              ((_ extract 503 496)
                file_1_/usr/lib/x86_64-linux-gnu/gconv/gconv-modules.cache_0_120_1024))
           (= #x00
              ((_ extract 511 504)
                file_1_/usr/lib/x86_64-linux-gnu/gconv/gconv-modules.cache_0_120_1024))
           (= #x00
              ((_ extract 535 528)
                file_1_/usr/lib/x86_64-linux-gnu/gconv/gconv-modules.cache_0_120_1024))
           (= #x00
              ((_ extract 543 536)
                file_1_/usr/lib/x86_64-linux-gnu/gconv/gconv-modules.cache_0_120_1024))
           (= #x00
              ((_ extract 655 648)
                file_1_/usr/lib/x86_64-linux-gnu/gconv/gconv-modules.cache_0_120_1024))
           (= #x00
              ((_ extract 735 728)
                file_1_/usr/lib/x86_64-linux-gnu/gconv/gconv-modules.cache_0_120_1024))
           (= #x00
              ((_ extract 647 640)
                file_1_/usr/lib/x86_64-linux-gnu/gconv/gconv-modules.cache_0_120_1024))
           (= #x00
              ((_ extract 663 656)
                file_1_/usr/lib/x86_64-linux-gnu/gconv/gconv-modules.cache_0_120_1024))
           (= #x00
              ((_ extract 671 664)
                file_1_/usr/lib/x86_64-linux-gnu/gconv/gconv-modules.cache_0_120_1024))
           (= #x00
              ((_ extract 719 712)
                file_1_/usr/lib/x86_64-linux-gnu/gconv/gconv-modules.cache_0_120_1024))
           (= #x00
              ((_ extract 591 584)
                file_1_/usr/lib/x86_64-linux-gnu/gconv/gconv-modules.cache_0_120_1024))
           (= #x00
              ((_ extract 631 624)
                file_1_/usr/lib/x86_64-linux-gnu/gconv/gconv-modules.cache_0_120_1024))
           (= #x00
              ((_ extract 759 752)
                file_1_/usr/lib/x86_64-linux-gnu/gconv/gconv-modules.cache_0_120_1024))
           (= #x00
              ((_ extract 551 544)
                file_1_/usr/lib/x86_64-linux-gnu/gconv/gconv-modules.cache_0_120_1024))
           (= #x00
              ((_ extract 687 680)
                file_1_/usr/lib/x86_64-linux-gnu/gconv/gconv-modules.cache_0_120_1024))))))))))))))))))))))))))))))))))))))))))))))))))))))))))))))
(define-fun goal () (_ BitVec 64) (bvadd (concat #x000000000000 mem_c00b2de3_469_16)
       (concat (concat #x000000000000
                       ((_ extract 983 976)
                         file_1_/usr/lib/x86_64-linux-gnu/gconv/gconv-modules.cache_0_120_1024))
               ((_ extract 991 984)
                 file_1_/usr/lib/x86_64-linux-gnu/gconv/gconv-modules.cache_0_120_1024))
       #x00000000c0080000)) 
(minimize goal)
(check-sat)